p tw 45 48
1 2
2 3
11 12
11 17
12 13
13 14
14 15
15 16
16 44
17 18
18 19
19 20
19 23
20 21
3 4
21 22
21 24
22 23
24 25
25 26
26 27
26 33
27 28
28 29
29 30
29 34
30 31
4 5
31 32
32 33
33 34
34 35
35 36
36 37
37 38
38 39
39 40
40 41
5 6
41 42
42 43
43 44
44 45
6 7
7 8
8 9
9 10
10 11
